(set-option :produce-models true)
(set-logic QF_UF)
(declare-fun p37() Bool)
(declare-fun p10() Bool)
(declare-fun p22() Bool)
(declare-fun p11() Bool)
(declare-fun p23() Bool)
(declare-fun p38() Bool)
(declare-fun p17() Bool)
(declare-fun p30() Bool)
(declare-fun p26() Bool)
(declare-fun p39() Bool)
(declare-fun p2() Bool)
(declare-fun p19() Bool)
(declare-fun p5() Bool)
(declare-fun p29() Bool)
(declare-fun p36() Bool)
(declare-fun p32() Bool)
(declare-fun p15() Bool)
(declare-fun p33() Bool)
(declare-fun p13() Bool)
(declare-fun p4() Bool)
(declare-fun p9() Bool)
(declare-fun p14() Bool)
(declare-fun p27() Bool)
(declare-fun p7() Bool)
(declare-fun p24() Bool)
(declare-fun p12() Bool)
(declare-fun p21() Bool)
(declare-fun p3() Bool)
(declare-fun p16() Bool)
(declare-fun p25() Bool)
(declare-fun p28() Bool)
(declare-fun p18() Bool)
(declare-fun p31() Bool)
(declare-fun p20() Bool)
(declare-fun p34() Bool)
(declare-fun p1() Bool)
(declare-fun p0() Bool)
(declare-fun p6() Bool)
(declare-fun p8() Bool)
(declare-fun p35() Bool)
(assert
(and (or p37 (not p10) p22) (or p11 p23 (not p38)) (or (not p17) (not p30) p26) (or (not p39) p2 p19) (or (not p5) (not p29) p36) (or p11 p32 p37) (or (not p15) p29 p33) (or p5 p13 (not p23)) (or (not p10) p39 p4) (or p9 p14 (not p27)) (or p7 p24 (not p24)) (or (not p12) (not p21) (not p11)) (or p13 p39 p3) (or (not p16) p25 p29) (or p22 p33 p33) (or p29 (not p3) (not p28)) (or p36 (not p4) (not p24)) (or p33 (not p28) p12) (or (not p9) (not p4) (not p23)) (or (not p26) (not p28) p37) (or p7 (not p14) p24) (or p14 p19 (not p18)) (or p22 p10 p38) (or (not p31) p33 (not p3)) (or p22 (not p7) p19) (or (not p27) (not p4) (not p37)) (or p27 p10 (not p36)) (or (not p17) (not p3) (not p30)) (or (not p25) p16 p9) (or p26 p19 (not p20)) (or p27 (not p34) p11) (or (not p25) (not p26) p37) (or (not p17) (not p33) p22) (or p11 p22 p13) (or (not p26) (not p36) (not p32)) (or (not p29) p33 (not p37)) (or (not p11) p1 p4) (or (not p13) (not p25) p15) (or p18 (not p13) (not p14)) (or p36 p0 p21) (or (not p4) (not p36) p38) (or p28 p6 (not p25)) (or (not p15) p1 p29) (or (not p19) (not p6) p17) (or (not p31) p10 p33) (or p8 (not p38) p32) (or p21 p18 (not p15)) (or (not p25) p10 (not p25)) (or p11 p20 p31) (or p14 (not p28) (not p38)) (or p9 p23 p24) (or p35 p38 p21) (or p26 (not p10) (not p21)) (or p38 (not p20) p36) (or p22 p32 (not p21)) (or (not p28) p31 p39) (or (not p19) p9 (not p36)) (or (not p9) (not p32) (not p4)) (or p30 (not p7) p14) (or p5 p28 p28) (or (not p8) p32 p5) (or p22 (not p18) p12) (or p0 (not p33) p30) (or p36 (not p26) (not p33)) (or p11 (not p34) (not p20)) (or (not p16) (not p34) p28) (or p10 p3 p3) (or p13 (not p0) p6) (or p26 (not p13) p29) (or p15 (not p22) p36) (or (not p28) (not p9) (not p23)) (or p10 (not p5) p34) (or (not p3) p9 p14) (or (not p0) p9 p36) (or p28 p17 p20) (or p7 p27 p2) (or (not p2) p21 p9) (or p10 (not p17) p7) (or (not p33) p30 p22) (or (not p22) p30 (not p23)) (or (not p7) p20 p35) (or p39 (not p17) (not p38)) (or (not p39) (not p8) p27) (or (not p4) (not p30) (not p35)) (or p28 (not p22) p3) (or p12 (not p31) (not p29)) (or p33 p32 p22) (or p30 (not p5) (not p39)) (or p20 (not p33) p1) (or p14 p27 p21) (or (not p37) p33 (not p33)) (or (not p12) p39 p12) (or p6 p38 p15) (or p34 (not p13) p7) (or (not p25) (not p9) (not p33)) (or (not p8) p28 (not p36)) (or p31 p31 (not p37)) (or (not p24) p18 (not p24)) (or (not p12) p38 p36) (or (not p34) p4 p36) (or (not p7) p15 p13) (or (not p4) p18 (not p38)) (or p0 p29 p38) (or (not p19) p31 p24) (or (not p4) (not p19) (not p15)) (or p25 (not p25) (not p6)) (or p36 p4 (not p26)) (or (not p36) (not p22) p19) (or (not p18) p28 (not p38)) (or (not p27) (not p23) (not p0)) (or (not p22) (not p1) (not p28)) (or p35 p34 p25) (or (not p3) (not p31) p32) (or p32 p22 p1) (or p5 (not p3) p10) (or p9 (not p0) (not p28)) (or (not p18) p12 (not p13)) (or p35 (not p24) (not p35)) (or (not p5) (not p14) p27) (or (not p26) p31 p31) (or (not p35) p3 p5) (or p14 (not p10) p20) (or (not p4) p20 p33) (or (not p34) (not p6) p25) (or (not p30) (not p21) (not p21)) (or p35 (not p25) (not p9)) (or (not p26) (not p29) p32) (or p8 p21 p33) (or (not p18) p38 (not p12)) (or p6 p8 (not p5)) (or (not p29) p32 (not p17)) (or (not p2) (not p32) p35) (or (not p29) p1 (not p0)) (or p16 (not p19) (not p10)) (or p27 p35 p32) (or (not p37) (not p34) (not p4)) (or (not p33) (not p28) (not p21)) (or (not p11) p18 p4) (or (not p25) (not p22) (not p10)) (or p14 p29 (not p24)) (or (not p18) p35 p20) (or (not p15) (not p29) (not p38)) (or (not p32) p30 p11) (or p10 (not p11) p13) (or (not p11) p25 (not p1)) (or (not p38) p32 (not p19)) (or (not p0) (not p36) (not p35)) (or p30 (not p16) (not p27)) (or p24 p1 (not p22)) (or p16 (not p19) p17) (or p37 (not p29) p33) (or (not p28) (not p24) p35) (or (not p29) p3 (not p5)) (or (not p38) p17 p28) (or p30 p20 (not p32)) (or (not p19) (not p23) (not p8)) (or (not p13) (not p2) (not p10)) (or (not p28) (not p19) p29) (or (not p5) p10 (not p23)) (or (not p33) (not p9) (not p22)) (or p6 p18 (not p7)) (or (not p6) (not p16) (not p7)) (or p9 (not p23) p37) (or p15 p39 p29) (or (not p9) (not p0) p32) (or (not p17) (not p27) p29) (or (not p23) (not p10) (not p9)) (or p33 p12 (not p19)) (or p7 (not p26) p21) (or p27 (not p0) p10) (or (not p16) p27 p32))
)
(check-sat)
(get-model)
